p cnf 264 522
34 0
-36 -67 0
-35 36 -67 0
35 36 67 0
-37 -68 0
37 67 -68 0
37 -67 68 0
-38 -69 0
38 68 -69 0
38 -68 69 0
-39 69 -70 0
-39 -69 70 0
39 70 0
-40 -71 0
40 70 -71 0
40 -70 71 0
-41 -72 0
41 71 -72 0
41 -71 72 0
-42 -73 0
42 72 -73 0
42 -72 73 0
-43 -74 0
43 73 -74 0
43 -73 74 0
-44 -75 0
44 74 -75 0
44 -74 75 0
-45 -76 0
45 75 -76 0
45 -75 76 0
-46 -77 0
46 76 -77 0
46 -76 77 0
-47 -78 0
47 77 -78 0
47 -77 78 0
-48 -79 0
48 78 -79 0
48 -78 79 0
-49 -80 0
49 79 -80 0
49 -79 80 0
-50 -81 0
50 80 -81 0
50 -80 81 0
-51 -82 0
51 81 -82 0
51 -81 82 0
-52 -83 0
52 82 -83 0
52 -82 83 0
-53 -84 0
53 83 -84 0
53 -83 84 0
-54 -85 0
54 84 -85 0
54 -84 85 0
-55 -86 0
55 85 -86 0
55 -85 86 0
-56 -87 0
56 86 -87 0
56 -86 87 0
-57 -88 0
57 87 -88 0
57 -87 88 0
-58 -89 0
58 88 -89 0
58 -88 89 0
-59 -90 0
59 89 -90 0
59 -89 90 0
-60 -91 0
60 90 -91 0
60 -90 91 0
-61 -92 0
61 91 -92 0
61 -91 92 0
-62 -93 0
62 92 -93 0
62 -92 93 0
-63 -94 0
63 93 -94 0
63 -93 94 0
-64 -95 0
64 94 -95 0
64 -94 95 0
-65 -96 0
65 95 -96 0
65 -95 96 0
-66 -97 0
66 96 -97 0
66 -96 97 0
66 -97 -98 0
-66 97 -98 0
66 97 98 0
-66 -97 98 0
-35 -99 0
-36 -99 0
-37 -99 0
-38 -99 0
39 -99 0
-40 -99 0
-41 -99 0
-42 -99 0
-43 -99 0
-44 -99 0
-45 -99 0
-46 -99 0
-47 -99 0
-48 -99 0
-49 -99 0
-50 -99 0
-51 -99 0
-52 -99 0
-53 -99 0
-54 -99 0
-55 -99 0
-56 -99 0
-57 -99 0
-58 -99 0
-59 -99 0
-60 -99 0
-61 -99 0
-62 -99 0
-63 -99 0
-64 -99 0
-65 -99 0
-66 -99 0
35 36 37 38 -39 40 41 42 43 44 45 46 47 48 49 50 51 52 53 54 55 56 57 58 59 60 61 62 63 64 65 66 99 0
-98 100 0
-99 100 0
98 99 -100 0
-33 100 -101 0
33 -100 -101 0
-33 -100 101 0
33 100 101 0
-101 0
37 -102 0
36 -102 0
-36 -37 102 0
-36 -37 -103 0
36 37 -103 0
36 -37 103 0
-36 37 103 0
-38 104 0
-102 104 0
38 102 -104 0
-38 -102 -105 0
38 102 -105 0
-38 102 105 0
38 -102 105 0
-39 106 0
-104 106 0
39 104 -106 0
-39 -104 -107 0
39 104 -107 0
-39 104 107 0
39 -104 107 0
-40 108 0
-106 108 0
40 106 -108 0
-40 -106 -109 0
40 106 -109 0
-40 106 109 0
40 -106 109 0
-41 110 0
-108 110 0
41 108 -110 0
-41 -108 -111 0
41 108 -111 0
-41 108 111 0
41 -108 111 0
-42 112 0
-110 112 0
42 110 -112 0
-42 -110 -113 0
42 110 -113 0
-42 110 113 0
42 -110 113 0
-43 114 0
-112 114 0
43 112 -114 0
-43 -112 -115 0
43 112 -115 0
-43 112 115 0
43 -112 115 0
-44 116 0
-114 116 0
44 114 -116 0
-44 -114 -117 0
44 114 -117 0
-44 114 117 0
44 -114 117 0
-45 118 0
-116 118 0
45 116 -118 0
-45 -116 -119 0
45 116 -119 0
-45 116 119 0
45 -116 119 0
-46 120 0
-118 120 0
46 118 -120 0
-46 -118 -121 0
46 118 -121 0
-46 118 121 0
46 -118 121 0
-47 122 0
-120 122 0
47 120 -122 0
-47 -120 -123 0
47 120 -123 0
-47 120 123 0
47 -120 123 0
-48 124 0
-122 124 0
48 122 -124 0
-48 -122 -125 0
48 122 -125 0
-48 122 125 0
48 -122 125 0
-49 126 0
-124 126 0
49 124 -126 0
-49 -124 -127 0
49 124 -127 0
-49 124 127 0
49 -124 127 0
-50 128 0
-126 128 0
50 126 -128 0
-50 -126 -129 0
50 126 -129 0
-50 126 129 0
50 -126 129 0
-51 130 0
-128 130 0
51 128 -130 0
-51 -128 -131 0
51 128 -131 0
-51 128 131 0
51 -128 131 0
-52 132 0
-130 132 0
52 130 -132 0
-52 -130 -133 0
52 130 -133 0
-52 130 133 0
52 -130 133 0
-53 134 0
-132 134 0
53 132 -134 0
-53 -132 -135 0
53 132 -135 0
-53 132 135 0
53 -132 135 0
-54 136 0
-134 136 0
54 134 -136 0
-54 -134 -137 0
54 134 -137 0
-54 134 137 0
54 -134 137 0
-55 138 0
-136 138 0
55 136 -138 0
-55 -136 -139 0
55 136 -139 0
-55 136 139 0
55 -136 139 0
-56 140 0
-138 140 0
56 138 -140 0
-56 -138 -141 0
56 138 -141 0
-56 138 141 0
56 -138 141 0
-57 142 0
-140 142 0
57 140 -142 0
-57 -140 -143 0
57 140 -143 0
-57 140 143 0
57 -140 143 0
-58 144 0
-142 144 0
58 142 -144 0
-58 -142 -145 0
58 142 -145 0
-58 142 145 0
58 -142 145 0
-59 146 0
-144 146 0
59 144 -146 0
-59 -144 -147 0
59 144 -147 0
-59 144 147 0
59 -144 147 0
-60 148 0
-146 148 0
60 146 -148 0
-60 -146 -149 0
60 146 -149 0
-60 146 149 0
60 -146 149 0
-61 150 0
-148 150 0
61 148 -150 0
-61 -148 -151 0
61 148 -151 0
-61 148 151 0
61 -148 151 0
-62 152 0
-150 152 0
62 150 -152 0
-62 -150 -153 0
62 150 -153 0
-62 150 153 0
62 -150 153 0
-63 154 0
-152 154 0
63 152 -154 0
-63 -152 -155 0
63 152 -155 0
-63 152 155 0
63 -152 155 0
-64 156 0
-154 156 0
64 154 -156 0
-64 -154 -157 0
64 154 -157 0
-64 154 157 0
64 -154 157 0
-65 158 0
-156 158 0
65 156 -158 0
-65 -156 -159 0
65 156 -159 0
-65 156 159 0
65 -156 159 0
66 -160 0
158 -160 0
-66 -158 160 0
-66 -158 -161 0
66 158 -161 0
-66 158 161 0
66 -158 161 0
33 -1 0
35 -1 0
-33 -35 1 0
33 2 0
36 2 0
-33 -36 -2 0
33 -3 0
103 -3 0
-33 -103 3 0
33 4 0
105 4 0
-33 -105 -4 0
33 5 0
107 5 0
-33 -107 -5 0
33 6 0
109 6 0
-33 -109 -6 0
33 7 0
111 7 0
-33 -111 -7 0
33 8 0
113 8 0
-33 -113 -8 0
33 9 0
115 9 0
-33 -115 -9 0
33 10 0
117 10 0
-33 -117 -10 0
33 11 0
119 11 0
-33 -119 -11 0
33 12 0
121 12 0
-33 -121 -12 0
33 13 0
123 13 0
-33 -123 -13 0
33 14 0
125 14 0
-33 -125 -14 0
33 15 0
127 15 0
-33 -127 -15 0
33 16 0
129 16 0
-33 -129 -16 0
33 17 0
131 17 0
-33 -131 -17 0
33 18 0
133 18 0
-33 -133 -18 0
33 19 0
135 19 0
-33 -135 -19 0
33 20 0
137 20 0
-33 -137 -20 0
33 21 0
139 21 0
-33 -139 -21 0
33 22 0
141 22 0
-33 -141 -22 0
33 23 0
143 23 0
-33 -143 -23 0
33 24 0
145 24 0
-33 -145 -24 0
33 25 0
147 25 0
-33 -147 -25 0
33 26 0
149 26 0
-33 -149 -26 0
33 27 0
151 27 0
-33 -151 -27 0
33 28 0
153 28 0
-33 -153 -28 0
33 29 0
155 29 0
-33 -155 -29 0
33 30 0
157 30 0
-33 -157 -30 0
33 31 0
159 31 0
-33 -159 -31 0
33 -32 0
161 -32 0
-33 -161 32 0
35 -226 0
-35 226 0
36 -227 0
-36 227 0
37 -228 0
-37 228 0
38 -229 0
-38 229 0
39 -230 0
-39 230 0
40 -231 0
-40 231 0
41 -232 0
-41 232 0
42 -233 0
-42 233 0
43 -234 0
-43 234 0
44 -235 0
-44 235 0
45 -236 0
-45 236 0
46 -237 0
-46 237 0
47 -238 0
-47 238 0
48 -239 0
-48 239 0
49 -240 0
-49 240 0
50 -241 0
-50 241 0
51 -242 0
-51 242 0
52 -243 0
-52 243 0
53 -244 0
-53 244 0
54 -245 0
-54 245 0
55 -246 0
-55 246 0
56 -247 0
-56 247 0
57 -248 0
-57 248 0
58 -249 0
-58 249 0
59 -250 0
-59 250 0
60 -251 0
-60 251 0
61 -252 0
-61 252 0
62 -253 0
-62 253 0
63 -254 0
-63 254 0
64 -255 0
-64 255 0
65 -256 0
-65 256 0
66 -257 0
-66 257 0
-258 -260 -262 0
258 260 -262 0
-258 260 262 0
258 -260 262 0
-259 -261 -263 0
259 261 -263 0
-259 261 263 0
259 -261 263 0
-262 -264 0
-263 -264 0
262 263 264 0
-34 264 0
34 -264 0
c __CPROVER_malloc_is_new_array#1 FALSE
c goto_symex::\guard#1 33
c sanity_check::1::O!0@1#1 162 163 164 165 166 167 168 169 170 171 172 173 174 175 176 177 178 179 180 181 182 183 184 185 186 187 188 189 190 191 192 193
c sanity_check::1::O!0@1#2 35 -36 103 -105 -107 -109 -111 -113 -115 -117 -119 -121 -123 -125 -127 -129 -131 -133 -135 -137 -139 -141 -143 -145 -147 -149 -151 -153 -155 -157 -159 161
c sanity_check::S!0@1#1 35 36 37 38 39 40 41 42 43 44 45 46 47 48 49 50 51 52 53 54 55 56 57 58 59 60 61 62 63 64 65 66
c sanity_check::1::O!0@1#3 162 163 164 165 166 167 168 169 170 171 172 173 174 175 176 177 178 179 180 181 182 183 184 185 186 187 188 189 190 191 192 193
c __CPROVER_malloc_object#1 FALSE FALSE FALSE FALSE FALSE FALSE FALSE FALSE FALSE FALSE FALSE FALSE FALSE FALSE FALSE FALSE FALSE FALSE FALSE FALSE FALSE FALSE FALSE FALSE FALSE FALSE FALSE FALSE FALSE FALSE FALSE FALSE
c _start::S!0#1 35 36 37 38 39 40 41 42 43 44 45 46 47 48 49 50 51 52 53 54 55 56 57 58 59 60 61 62 63 64 65 66
c __CPROVER_deallocated#1 FALSE FALSE FALSE FALSE FALSE FALSE FALSE FALSE FALSE FALSE FALSE FALSE FALSE FALSE FALSE FALSE FALSE FALSE FALSE FALSE FALSE FALSE FALSE FALSE FALSE FALSE FALSE FALSE FALSE FALSE FALSE FALSE
c sanity_check::1::O!0@1#4 FALSE TRUE FALSE TRUE TRUE TRUE TRUE TRUE TRUE TRUE TRUE TRUE TRUE TRUE TRUE TRUE TRUE TRUE TRUE TRUE TRUE TRUE TRUE TRUE TRUE TRUE TRUE TRUE TRUE TRUE TRUE FALSE
c __CPROVER_malloc_size#1 FALSE FALSE FALSE FALSE FALSE FALSE FALSE FALSE FALSE FALSE FALSE FALSE FALSE FALSE FALSE FALSE FALSE FALSE FALSE FALSE FALSE FALSE FALSE FALSE FALSE FALSE FALSE FALSE FALSE FALSE FALSE FALSE
c sanity_check::1::__return_value!0@1#1 194 195 196 197 198 199 200 201 202 203 204 205 206 207 208 209 210 211 212 213 214 215 216 217 218 219 220 221 222 223 224 225
c __CPROVER_dead_object#1 FALSE FALSE FALSE FALSE FALSE FALSE FALSE FALSE FALSE FALSE FALSE FALSE FALSE FALSE FALSE FALSE FALSE FALSE FALSE FALSE FALSE FALSE FALSE FALSE FALSE FALSE FALSE FALSE FALSE FALSE FALSE FALSE
c sanity_check::1::O!0@1#5 1 2 3 4 5 6 7 8 9 10 11 12 13 14 15 16 17 18 19 20 21 22 23 24 25 26 27 28 29 30 31 32
c __CPROVER_memory_leak#1 FALSE FALSE FALSE FALSE FALSE FALSE FALSE FALSE FALSE FALSE FALSE FALSE FALSE FALSE FALSE FALSE FALSE FALSE FALSE FALSE FALSE FALSE FALSE FALSE FALSE FALSE FALSE FALSE FALSE FALSE FALSE FALSE
c sanity_check::1::__return_value!0@1#2 1 2 3 4 5 6 7 8 9 10 11 12 13 14 15 16 17 18 19 20 21 22 23 24 25 26 27 28 29 30 31 32
c __CPROVER_next_thread_id#1 FALSE FALSE FALSE FALSE FALSE FALSE FALSE FALSE FALSE FALSE FALSE FALSE FALSE FALSE FALSE FALSE FALSE FALSE FALSE FALSE FALSE FALSE FALSE FALSE FALSE FALSE FALSE FALSE FALSE FALSE FALSE FALSE
c __CPROVER_pipe_count#1 FALSE FALSE FALSE FALSE FALSE FALSE FALSE FALSE FALSE FALSE FALSE FALSE FALSE FALSE FALSE FALSE FALSE FALSE FALSE FALSE FALSE FALSE FALSE FALSE FALSE FALSE FALSE FALSE FALSE FALSE FALSE FALSE
c __CPROVER_rounding_mode!0#1 FALSE FALSE FALSE FALSE FALSE FALSE FALSE FALSE FALSE FALSE FALSE FALSE FALSE FALSE FALSE FALSE FALSE FALSE FALSE FALSE FALSE FALSE FALSE FALSE FALSE FALSE FALSE FALSE FALSE FALSE FALSE FALSE
c symex::io::0 226 227 228 229 230 231 232 233 234 235 236 237 238 239 240 241 242 243 244 245 246 247 248 249 250 251 252 253 254 255 256 257
c __CPROVER_thread_id!0#1 FALSE FALSE FALSE FALSE FALSE FALSE FALSE FALSE FALSE FALSE FALSE FALSE FALSE FALSE FALSE FALSE FALSE FALSE FALSE FALSE FALSE FALSE FALSE FALSE FALSE FALSE FALSE FALSE FALSE FALSE FALSE FALSE
c ind 1 2 3 4 5 6 7 8 9 10 0
c ind 11 12 13 14 15 16 17 18 19 20 0
c ind 21 22 23 24 25 26 27 28 29 30 0
c ind 31 32 0
cr 1 2 3 4 5 6 7 8 9 10 11 12 13 14 15 16 17 18 19 20 21 22 23 24 25 26 27 28 29 30 31 32
